; benchmark generated from python API
(set-info :status unknown)
(declare-datatypes ((RealState 0)) (((RMk1 (rval1 Real)) (RMk2 (rval2 Real)))))
 (assert
 (forall ((|v9:0| Real) )(exists ((|v8:1_st| RealState) (val!980 Real) )(forall ((|v7:2| Real) )(exists ((|v6:3_st| RealState) (val!981 Real) )(forall ((|v5:4| Real) )(exists ((|v4:5_st| RealState) (val!982 Real) )(forall ((|v3:6| Real) )(exists ((|v2:7_st| RealState) (val!983 Real) )(forall ((|v1:8| Real) )(exists ((|v0:9_st| RealState) (val!984 Real) )(let ((?x420 (- 7.0)))
 (let (($x279 (<= (+ (+ (* 19.0 |v3:6|) (* (- 9.0) |v1:8|)) (* 17.0 |v3:6|)) ?x420)))
 (let ((?x934 (- 11.0)))
 (let (($x913 (<= (+ (+ (* (- 1.0) |v5:4|) (* 6.0 (rval2 |v2:7_st|))) (* 10.0 |v7:2|)) ?x934)))
 (let ((?x286 (+ (+ (* (- 10.0) (rval2 |v6:3_st|)) (* 3.0 |v5:4|)) (* (- 14.0) |v7:2|))))
 (let ((?x859 (+ (+ (* 10.0 (rval2 |v8:1_st|)) (* (- 1.0) (rval2 |v4:5_st|))) (* ?x420 (rval2 |v6:3_st|)))))
 (let ((?x854 (- 15.0)))
 (let (($x955 (<= (+ (+ (* (- 12.0) |v9:0|) (* 11.0 |v7:2|)) (* 9.0 (rval2 |v0:9_st|))) ?x854)))
 (let (($x179 (<= (+ (+ (* 8.0 (rval2 |v2:7_st|)) |v3:6|) (* (- 10.0) |v7:2|)) 4.0)))
 (let ((?x611 (+ (+ (* (- 9.0) |v7:2|) (* (- 10.0) |v1:8|)) (* ?x934 (rval2 |v0:9_st|)))))
 (let (($x151 (or (or (or (<= ?x611 ?x420) $x179) $x955) (and (and (<= ?x859 3.0) (<= ?x286 4.0)) (and $x913 $x279)))))
 (let (($x45 (<= (+ (+ (* 5.0 |v5:4|) (* 15.0 (rval2 |v2:7_st|))) (* 2.0 |v9:0|)) 13.0)))
 (let ((?x733 (- 12.0)))
 (let (($x471 (<= (+ (+ (* (- 6.0) |v1:8|) (* 7.0 |v9:0|)) (* 13.0 |v5:4|)) ?x733)))
 (let ((?x515 (- 8.0)))
 (let ((?x1287 (+ (+ (* 2.0 (rval2 |v0:9_st|)) (* (- 16.0) |v3:6|)) (* (- 14.0) (rval2 |v6:3_st|)))))
 (let ((?x1343 (+ (+ (* (- 17.0) (rval2 |v6:3_st|)) (* 11.0 (rval2 |v2:7_st|))) (* ?x515 |v7:2|))))
 (let ((?x684 (- 17.0)))
 (let ((?x810 (rval2 |v6:3_st|)))
 (let ((?x1263 (* 18.0 ?x810)))
 (let ((?x183 (* 15.0 |v1:8|)))
 (let (($x1025 (<= (+ (+ (* (- 10.0) (rval2 |v0:9_st|)) (* (- 13.0) |v9:0|)) ?x183) 10.0)))
 (let (($x1146 (or $x1025 (<= (+ (+ (* ?x515 |v1:8|) (* (- 20.0) (rval2 |v0:9_st|))) ?x1263) ?x684))))
 (let ((?x891 (rval2 |v0:9_st|)))
 (let ((?x954 (* 11.0 ?x891)))
 (let (($x42 (<= (+ (+ (* 17.0 |v3:6|) (* (- 9.0) (rval2 |v2:7_st|))) ?x954) 12.0)))
 (let ((?x31 (- 3.0)))
 (let ((?x1395 (+ (+ (* (- 6.0) (rval2 |v8:1_st|)) (* ?x684 |v5:4|)) (* ?x733 (rval2 |v2:7_st|)))))
 (let (($x1077 (and (and (and (<= ?x1395 ?x31) $x42) $x1146) (and (and (<= ?x1343 10.0) (<= ?x1287 ?x515)) (and $x471 $x45)))))
 (let ((?x556 (+ (+ (* (- 9.0) |v3:6|) (* (- 14.0) (rval2 |v4:5_st|))) (* (- 20.0) |v5:4|))))
 (let (($x483 (<= (+ (+ (* ?x733 ?x891) (* 8.0 |v1:8|)) (* (- 13.0) |v7:2|)) 20.0)))
 (let ((?x246 (- 6.0)))
 (let ((?x804 (* 7.0 ?x891)))
 (let (($x1142 (<= (+ (+ (* 17.0 (rval2 |v8:1_st|)) (* 16.0 (rval2 |v2:7_st|))) ?x804) ?x246)))
 (let ((?x1187 (- 9.0)))
 (let (($x957 (<= (+ (+ (* 5.0 ?x810) (* 10.0 |v3:6|)) (* 12.0 (rval2 |v4:5_st|))) ?x1187)))
 (let (($x935 (<= (+ (+ (* ?x246 |v3:6|) (* 8.0 (rval2 |v4:5_st|))) (* 14.0 |v9:0|)) 9.0)))
 (let (($x103 (or $x935 (<= (+ (+ (* 5.0 |v3:6|) (* 4.0 ?x891)) (* 15.0 |v3:6|)) ?x31))))
 (let (($x53 (<= (+ (+ (* ?x31 |v7:2|) (* 4.0 |v7:2|)) (* (- 2.0) |v3:6|)) 17.0)))
 (let ((?x734 (+ (+ (* 2.0 (rval2 |v2:7_st|)) (* (- 4.0) |v5:4|)) (* 5.0 (rval2 |v8:1_st|)))))
 (let (($x572 (and (and (and (<= ?x734 9.0) $x53) $x103) (and (and $x957 $x1142) (and $x483 (<= ?x556 9.0))))))
 (let (($x285 (and (<= (+ (+ (* ?x31 |v5:4|) (* 15.0 (rval2 |v4:5_st|))) ?x1263) (- 10.0)) (<= (+ (+ (* ?x733 |v1:8|) (* ?x246 ?x810)) (* (- 10.0) |v7:2|)) ?x684))))
 (let ((?x187 (- 10.0)))
 (let (($x207 (<= (+ (+ (* 15.0 (rval2 |v4:5_st|)) (* 20.0 ?x891)) (* (- 19.0) |v5:4|)) ?x187)))
 (let (($x217 (and (<= (+ (+ |v5:4| (* (- 4.0) ?x891)) (* ?x1187 (rval2 |v4:5_st|))) 10.0) $x207)))
 (let (($x52 (<= (+ (+ (* ?x187 (rval2 |v8:1_st|)) (* 6.0 |v1:8|)) (* (- 4.0) ?x810)) ?x246)))
 (let ((?x23 (- 16.0)))
 (let ((?x368 (* ?x23 |v3:6|)))
 (let (($x851 (<= (+ (+ (* (- 1.0) (rval2 |v4:5_st|)) (* (- 14.0) |v9:0|)) ?x368) 8.0)))
 (let (($x814 (<= (+ (+ (* 13.0 ?x810) (* 12.0 |v3:6|)) (* 6.0 (rval2 |v2:7_st|))) 11.0)))
 (let ((?x636 (- 1.0)))
 (let (($x571 (<= (+ (+ (* 13.0 |v3:6|) (* 12.0 (rval2 |v8:1_st|))) (* 9.0 |v7:2|)) ?x636)))
 (let (($x1253 (and (and (and (and $x571 $x814) (and $x851 $x52)) (or $x217 $x285)) $x572)))
 (let (($x945 (not (= |v0:9_st| (RMk1 val!984)))))
 (let (($x729 (not (= |v2:7_st| (RMk1 val!983)))))
 (let (($x655 (not (= |v4:5_st| (RMk1 val!982)))))
 (let (($x501 (not (= |v6:3_st| (RMk1 val!981)))))
 (let (($x699 (not (= |v8:1_st| (RMk1 val!980)))))
 (and $x699 $x501 $x655 $x729 $x945 (and $x1253 (or $x1077 $x151))))))))))))))))))))))))))))))))))))))))))))))))))))))))))))))
 )
 )
 )
 )
 )
 )
 )
 )
 )
 )
(check-sat)
